 num_bands       = 52
 num_wann        = 22
 spinors = .true.

dis_win_max =  2.5
dis_win_min =  -12
dis_froz_max = 2.5
dis_froz_min = -12

!!! Iterations &c. !!!
 iprint                = 1
 num_iter              = 10000
 num_print_cycles      = 1000
 conv_window           = 3
!conv_tol              = 1e-10
 dis_num_iter          = 10000
!dis_conv_window       = 3
!dis_conv_tol          = 1e-10
!restart               = default ! wannierise ! plot ! transport

!!! Post-processing options !!!
 write_xyz              = .true.
 write_hr               = .true.


begin unit_cell_cart
Bohr
    5.933740   0.000000   0.000000
   -2.966870   5.138767   0.000000
    0.000000   0.000000   59.33740
end unit_cell_cart

begin atoms_frac
Mo       0.333333333   0.666666667   0.000000000
S        0.666666667   0.333333333   0.049860361
S        0.666666667   0.333333333  -0.049860361
end atoms_frac


!!!! Dummy `projections' block for guiding centres !!!
guiding_centres = T
begin projections
   Mo:d
   S:p
end projections

!!! K-Points !!!
mp_grid : 36 36 1
begin kpoints
0.00000000  0.00000000  0.00000000
0.00000000  0.02777778  0.00000000
0.00000000  0.05555556  0.00000000
0.00000000  0.08333333  0.00000000
0.00000000  0.11111111  0.00000000
0.00000000  0.13888889  0.00000000
0.00000000  0.16666667  0.00000000
0.00000000  0.19444444  0.00000000
0.00000000  0.22222222  0.00000000
0.00000000  0.25000000  0.00000000
0.00000000  0.27777778  0.00000000
0.00000000  0.30555556  0.00000000
0.00000000  0.33333333  0.00000000
0.00000000  0.36111111  0.00000000
0.00000000  0.38888889  0.00000000
0.00000000  0.41666667  0.00000000
0.00000000  0.44444444  0.00000000
0.00000000  0.47222222  0.00000000
0.00000000  0.50000000  0.00000000
0.00000000  0.52777778  0.00000000
0.00000000  0.55555556  0.00000000
0.00000000  0.58333333  0.00000000
0.00000000  0.61111111  0.00000000
0.00000000  0.63888889  0.00000000
0.00000000  0.66666667  0.00000000
0.00000000  0.69444444  0.00000000
0.00000000  0.72222222  0.00000000
0.00000000  0.75000000  0.00000000
0.00000000  0.77777778  0.00000000
0.00000000  0.80555556  0.00000000
0.00000000  0.83333333  0.00000000
0.00000000  0.86111111  0.00000000
0.00000000  0.88888889  0.00000000
0.00000000  0.91666667  0.00000000
0.00000000  0.94444444  0.00000000
0.00000000  0.97222222  0.00000000
0.02777778  0.00000000  0.00000000
0.02777778  0.02777778  0.00000000
0.02777778  0.05555556  0.00000000
0.02777778  0.08333333  0.00000000
0.02777778  0.11111111  0.00000000
0.02777778  0.13888889  0.00000000
0.02777778  0.16666667  0.00000000
0.02777778  0.19444444  0.00000000
0.02777778  0.22222222  0.00000000
0.02777778  0.25000000  0.00000000
0.02777778  0.27777778  0.00000000
0.02777778  0.30555556  0.00000000
0.02777778  0.33333333  0.00000000
0.02777778  0.36111111  0.00000000
0.02777778  0.38888889  0.00000000
0.02777778  0.41666667  0.00000000
0.02777778  0.44444444  0.00000000
0.02777778  0.47222222  0.00000000
0.02777778  0.50000000  0.00000000
0.02777778  0.52777778  0.00000000
0.02777778  0.55555556  0.00000000
0.02777778  0.58333333  0.00000000
0.02777778  0.61111111  0.00000000
0.02777778  0.63888889  0.00000000
0.02777778  0.66666667  0.00000000
0.02777778  0.69444444  0.00000000
0.02777778  0.72222222  0.00000000
0.02777778  0.75000000  0.00000000
0.02777778  0.77777778  0.00000000
0.02777778  0.80555556  0.00000000
0.02777778  0.83333333  0.00000000
0.02777778  0.86111111  0.00000000
0.02777778  0.88888889  0.00000000
0.02777778  0.91666667  0.00000000
0.02777778  0.94444444  0.00000000
0.02777778  0.97222222  0.00000000
0.05555556  0.00000000  0.00000000
0.05555556  0.02777778  0.00000000
0.05555556  0.05555556  0.00000000
0.05555556  0.08333333  0.00000000
0.05555556  0.11111111  0.00000000
0.05555556  0.13888889  0.00000000
0.05555556  0.16666667  0.00000000
0.05555556  0.19444444  0.00000000
0.05555556  0.22222222  0.00000000
0.05555556  0.25000000  0.00000000
0.05555556  0.27777778  0.00000000
0.05555556  0.30555556  0.00000000
0.05555556  0.33333333  0.00000000
0.05555556  0.36111111  0.00000000
0.05555556  0.38888889  0.00000000
0.05555556  0.41666667  0.00000000
0.05555556  0.44444444  0.00000000
0.05555556  0.47222222  0.00000000
0.05555556  0.50000000  0.00000000
0.05555556  0.52777778  0.00000000
0.05555556  0.55555556  0.00000000
0.05555556  0.58333333  0.00000000
0.05555556  0.61111111  0.00000000
0.05555556  0.63888889  0.00000000
0.05555556  0.66666667  0.00000000
0.05555556  0.69444444  0.00000000
0.05555556  0.72222222  0.00000000
0.05555556  0.75000000  0.00000000
0.05555556  0.77777778  0.00000000
0.05555556  0.80555556  0.00000000
0.05555556  0.83333333  0.00000000
0.05555556  0.86111111  0.00000000
0.05555556  0.88888889  0.00000000
0.05555556  0.91666667  0.00000000
0.05555556  0.94444444  0.00000000
0.05555556  0.97222222  0.00000000
0.08333333  0.00000000  0.00000000
0.08333333  0.02777778  0.00000000
0.08333333  0.05555556  0.00000000
0.08333333  0.08333333  0.00000000
0.08333333  0.11111111  0.00000000
0.08333333  0.13888889  0.00000000
0.08333333  0.16666667  0.00000000
0.08333333  0.19444444  0.00000000
0.08333333  0.22222222  0.00000000
0.08333333  0.25000000  0.00000000
0.08333333  0.27777778  0.00000000
0.08333333  0.30555556  0.00000000
0.08333333  0.33333333  0.00000000
0.08333333  0.36111111  0.00000000
0.08333333  0.38888889  0.00000000
0.08333333  0.41666667  0.00000000
0.08333333  0.44444444  0.00000000
0.08333333  0.47222222  0.00000000
0.08333333  0.50000000  0.00000000
0.08333333  0.52777778  0.00000000
0.08333333  0.55555556  0.00000000
0.08333333  0.58333333  0.00000000
0.08333333  0.61111111  0.00000000
0.08333333  0.63888889  0.00000000
0.08333333  0.66666667  0.00000000
0.08333333  0.69444444  0.00000000
0.08333333  0.72222222  0.00000000
0.08333333  0.75000000  0.00000000
0.08333333  0.77777778  0.00000000
0.08333333  0.80555556  0.00000000
0.08333333  0.83333333  0.00000000
0.08333333  0.86111111  0.00000000
0.08333333  0.88888889  0.00000000
0.08333333  0.91666667  0.00000000
0.08333333  0.94444444  0.00000000
0.08333333  0.97222222  0.00000000
0.11111111  0.00000000  0.00000000
0.11111111  0.02777778  0.00000000
0.11111111  0.05555556  0.00000000
0.11111111  0.08333333  0.00000000
0.11111111  0.11111111  0.00000000
0.11111111  0.13888889  0.00000000
0.11111111  0.16666667  0.00000000
0.11111111  0.19444444  0.00000000
0.11111111  0.22222222  0.00000000
0.11111111  0.25000000  0.00000000
0.11111111  0.27777778  0.00000000
0.11111111  0.30555556  0.00000000
0.11111111  0.33333333  0.00000000
0.11111111  0.36111111  0.00000000
0.11111111  0.38888889  0.00000000
0.11111111  0.41666667  0.00000000
0.11111111  0.44444444  0.00000000
0.11111111  0.47222222  0.00000000
0.11111111  0.50000000  0.00000000
0.11111111  0.52777778  0.00000000
0.11111111  0.55555556  0.00000000
0.11111111  0.58333333  0.00000000
0.11111111  0.61111111  0.00000000
0.11111111  0.63888889  0.00000000
0.11111111  0.66666667  0.00000000
0.11111111  0.69444444  0.00000000
0.11111111  0.72222222  0.00000000
0.11111111  0.75000000  0.00000000
0.11111111  0.77777778  0.00000000
0.11111111  0.80555556  0.00000000
0.11111111  0.83333333  0.00000000
0.11111111  0.86111111  0.00000000
0.11111111  0.88888889  0.00000000
0.11111111  0.91666667  0.00000000
0.11111111  0.94444444  0.00000000
0.11111111  0.97222222  0.00000000
0.13888889  0.00000000  0.00000000
0.13888889  0.02777778  0.00000000
0.13888889  0.05555556  0.00000000
0.13888889  0.08333333  0.00000000
0.13888889  0.11111111  0.00000000
0.13888889  0.13888889  0.00000000
0.13888889  0.16666667  0.00000000
0.13888889  0.19444444  0.00000000
0.13888889  0.22222222  0.00000000
0.13888889  0.25000000  0.00000000
0.13888889  0.27777778  0.00000000
0.13888889  0.30555556  0.00000000
0.13888889  0.33333333  0.00000000
0.13888889  0.36111111  0.00000000
0.13888889  0.38888889  0.00000000
0.13888889  0.41666667  0.00000000
0.13888889  0.44444444  0.00000000
0.13888889  0.47222222  0.00000000
0.13888889  0.50000000  0.00000000
0.13888889  0.52777778  0.00000000
0.13888889  0.55555556  0.00000000
0.13888889  0.58333333  0.00000000
0.13888889  0.61111111  0.00000000
0.13888889  0.63888889  0.00000000
0.13888889  0.66666667  0.00000000
0.13888889  0.69444444  0.00000000
0.13888889  0.72222222  0.00000000
0.13888889  0.75000000  0.00000000
0.13888889  0.77777778  0.00000000
0.13888889  0.80555556  0.00000000
0.13888889  0.83333333  0.00000000
0.13888889  0.86111111  0.00000000
0.13888889  0.88888889  0.00000000
0.13888889  0.91666667  0.00000000
0.13888889  0.94444444  0.00000000
0.13888889  0.97222222  0.00000000
0.16666667  0.00000000  0.00000000
0.16666667  0.02777778  0.00000000
0.16666667  0.05555556  0.00000000
0.16666667  0.08333333  0.00000000
0.16666667  0.11111111  0.00000000
0.16666667  0.13888889  0.00000000
0.16666667  0.16666667  0.00000000
0.16666667  0.19444444  0.00000000
0.16666667  0.22222222  0.00000000
0.16666667  0.25000000  0.00000000
0.16666667  0.27777778  0.00000000
0.16666667  0.30555556  0.00000000
0.16666667  0.33333333  0.00000000
0.16666667  0.36111111  0.00000000
0.16666667  0.38888889  0.00000000
0.16666667  0.41666667  0.00000000
0.16666667  0.44444444  0.00000000
0.16666667  0.47222222  0.00000000
0.16666667  0.50000000  0.00000000
0.16666667  0.52777778  0.00000000
0.16666667  0.55555556  0.00000000
0.16666667  0.58333333  0.00000000
0.16666667  0.61111111  0.00000000
0.16666667  0.63888889  0.00000000
0.16666667  0.66666667  0.00000000
0.16666667  0.69444444  0.00000000
0.16666667  0.72222222  0.00000000
0.16666667  0.75000000  0.00000000
0.16666667  0.77777778  0.00000000
0.16666667  0.80555556  0.00000000
0.16666667  0.83333333  0.00000000
0.16666667  0.86111111  0.00000000
0.16666667  0.88888889  0.00000000
0.16666667  0.91666667  0.00000000
0.16666667  0.94444444  0.00000000
0.16666667  0.97222222  0.00000000
0.19444444  0.00000000  0.00000000
0.19444444  0.02777778  0.00000000
0.19444444  0.05555556  0.00000000
0.19444444  0.08333333  0.00000000
0.19444444  0.11111111  0.00000000
0.19444444  0.13888889  0.00000000
0.19444444  0.16666667  0.00000000
0.19444444  0.19444444  0.00000000
0.19444444  0.22222222  0.00000000
0.19444444  0.25000000  0.00000000
0.19444444  0.27777778  0.00000000
0.19444444  0.30555556  0.00000000
0.19444444  0.33333333  0.00000000
0.19444444  0.36111111  0.00000000
0.19444444  0.38888889  0.00000000
0.19444444  0.41666667  0.00000000
0.19444444  0.44444444  0.00000000
0.19444444  0.47222222  0.00000000
0.19444444  0.50000000  0.00000000
0.19444444  0.52777778  0.00000000
0.19444444  0.55555556  0.00000000
0.19444444  0.58333333  0.00000000
0.19444444  0.61111111  0.00000000
0.19444444  0.63888889  0.00000000
0.19444444  0.66666667  0.00000000
0.19444444  0.69444444  0.00000000
0.19444444  0.72222222  0.00000000
0.19444444  0.75000000  0.00000000
0.19444444  0.77777778  0.00000000
0.19444444  0.80555556  0.00000000
0.19444444  0.83333333  0.00000000
0.19444444  0.86111111  0.00000000
0.19444444  0.88888889  0.00000000
0.19444444  0.91666667  0.00000000
0.19444444  0.94444444  0.00000000
0.19444444  0.97222222  0.00000000
0.22222222  0.00000000  0.00000000
0.22222222  0.02777778  0.00000000
0.22222222  0.05555556  0.00000000
0.22222222  0.08333333  0.00000000
0.22222222  0.11111111  0.00000000
0.22222222  0.13888889  0.00000000
0.22222222  0.16666667  0.00000000
0.22222222  0.19444444  0.00000000
0.22222222  0.22222222  0.00000000
0.22222222  0.25000000  0.00000000
0.22222222  0.27777778  0.00000000
0.22222222  0.30555556  0.00000000
0.22222222  0.33333333  0.00000000
0.22222222  0.36111111  0.00000000
0.22222222  0.38888889  0.00000000
0.22222222  0.41666667  0.00000000
0.22222222  0.44444444  0.00000000
0.22222222  0.47222222  0.00000000
0.22222222  0.50000000  0.00000000
0.22222222  0.52777778  0.00000000
0.22222222  0.55555556  0.00000000
0.22222222  0.58333333  0.00000000
0.22222222  0.61111111  0.00000000
0.22222222  0.63888889  0.00000000
0.22222222  0.66666667  0.00000000
0.22222222  0.69444444  0.00000000
0.22222222  0.72222222  0.00000000
0.22222222  0.75000000  0.00000000
0.22222222  0.77777778  0.00000000
0.22222222  0.80555556  0.00000000
0.22222222  0.83333333  0.00000000
0.22222222  0.86111111  0.00000000
0.22222222  0.88888889  0.00000000
0.22222222  0.91666667  0.00000000
0.22222222  0.94444444  0.00000000
0.22222222  0.97222222  0.00000000
0.25000000  0.00000000  0.00000000
0.25000000  0.02777778  0.00000000
0.25000000  0.05555556  0.00000000
0.25000000  0.08333333  0.00000000
0.25000000  0.11111111  0.00000000
0.25000000  0.13888889  0.00000000
0.25000000  0.16666667  0.00000000
0.25000000  0.19444444  0.00000000
0.25000000  0.22222222  0.00000000
0.25000000  0.25000000  0.00000000
0.25000000  0.27777778  0.00000000
0.25000000  0.30555556  0.00000000
0.25000000  0.33333333  0.00000000
0.25000000  0.36111111  0.00000000
0.25000000  0.38888889  0.00000000
0.25000000  0.41666667  0.00000000
0.25000000  0.44444444  0.00000000
0.25000000  0.47222222  0.00000000
0.25000000  0.50000000  0.00000000
0.25000000  0.52777778  0.00000000
0.25000000  0.55555556  0.00000000
0.25000000  0.58333333  0.00000000
0.25000000  0.61111111  0.00000000
0.25000000  0.63888889  0.00000000
0.25000000  0.66666667  0.00000000
0.25000000  0.69444444  0.00000000
0.25000000  0.72222222  0.00000000
0.25000000  0.75000000  0.00000000
0.25000000  0.77777778  0.00000000
0.25000000  0.80555556  0.00000000
0.25000000  0.83333333  0.00000000
0.25000000  0.86111111  0.00000000
0.25000000  0.88888889  0.00000000
0.25000000  0.91666667  0.00000000
0.25000000  0.94444444  0.00000000
0.25000000  0.97222222  0.00000000
0.27777778  0.00000000  0.00000000
0.27777778  0.02777778  0.00000000
0.27777778  0.05555556  0.00000000
0.27777778  0.08333333  0.00000000
0.27777778  0.11111111  0.00000000
0.27777778  0.13888889  0.00000000
0.27777778  0.16666667  0.00000000
0.27777778  0.19444444  0.00000000
0.27777778  0.22222222  0.00000000
0.27777778  0.25000000  0.00000000
0.27777778  0.27777778  0.00000000
0.27777778  0.30555556  0.00000000
0.27777778  0.33333333  0.00000000
0.27777778  0.36111111  0.00000000
0.27777778  0.38888889  0.00000000
0.27777778  0.41666667  0.00000000
0.27777778  0.44444444  0.00000000
0.27777778  0.47222222  0.00000000
0.27777778  0.50000000  0.00000000
0.27777778  0.52777778  0.00000000
0.27777778  0.55555556  0.00000000
0.27777778  0.58333333  0.00000000
0.27777778  0.61111111  0.00000000
0.27777778  0.63888889  0.00000000
0.27777778  0.66666667  0.00000000
0.27777778  0.69444444  0.00000000
0.27777778  0.72222222  0.00000000
0.27777778  0.75000000  0.00000000
0.27777778  0.77777778  0.00000000
0.27777778  0.80555556  0.00000000
0.27777778  0.83333333  0.00000000
0.27777778  0.86111111  0.00000000
0.27777778  0.88888889  0.00000000
0.27777778  0.91666667  0.00000000
0.27777778  0.94444444  0.00000000
0.27777778  0.97222222  0.00000000
0.30555556  0.00000000  0.00000000
0.30555556  0.02777778  0.00000000
0.30555556  0.05555556  0.00000000
0.30555556  0.08333333  0.00000000
0.30555556  0.11111111  0.00000000
0.30555556  0.13888889  0.00000000
0.30555556  0.16666667  0.00000000
0.30555556  0.19444444  0.00000000
0.30555556  0.22222222  0.00000000
0.30555556  0.25000000  0.00000000
0.30555556  0.27777778  0.00000000
0.30555556  0.30555556  0.00000000
0.30555556  0.33333333  0.00000000
0.30555556  0.36111111  0.00000000
0.30555556  0.38888889  0.00000000
0.30555556  0.41666667  0.00000000
0.30555556  0.44444444  0.00000000
0.30555556  0.47222222  0.00000000
0.30555556  0.50000000  0.00000000
0.30555556  0.52777778  0.00000000
0.30555556  0.55555556  0.00000000
0.30555556  0.58333333  0.00000000
0.30555556  0.61111111  0.00000000
0.30555556  0.63888889  0.00000000
0.30555556  0.66666667  0.00000000
0.30555556  0.69444444  0.00000000
0.30555556  0.72222222  0.00000000
0.30555556  0.75000000  0.00000000
0.30555556  0.77777778  0.00000000
0.30555556  0.80555556  0.00000000
0.30555556  0.83333333  0.00000000
0.30555556  0.86111111  0.00000000
0.30555556  0.88888889  0.00000000
0.30555556  0.91666667  0.00000000
0.30555556  0.94444444  0.00000000
0.30555556  0.97222222  0.00000000
0.33333333  0.00000000  0.00000000
0.33333333  0.02777778  0.00000000
0.33333333  0.05555556  0.00000000
0.33333333  0.08333333  0.00000000
0.33333333  0.11111111  0.00000000
0.33333333  0.13888889  0.00000000
0.33333333  0.16666667  0.00000000
0.33333333  0.19444444  0.00000000
0.33333333  0.22222222  0.00000000
0.33333333  0.25000000  0.00000000
0.33333333  0.27777778  0.00000000
0.33333333  0.30555556  0.00000000
0.33333333  0.33333333  0.00000000
0.33333333  0.36111111  0.00000000
0.33333333  0.38888889  0.00000000
0.33333333  0.41666667  0.00000000
0.33333333  0.44444444  0.00000000
0.33333333  0.47222222  0.00000000
0.33333333  0.50000000  0.00000000
0.33333333  0.52777778  0.00000000
0.33333333  0.55555556  0.00000000
0.33333333  0.58333333  0.00000000
0.33333333  0.61111111  0.00000000
0.33333333  0.63888889  0.00000000
0.33333333  0.66666667  0.00000000
0.33333333  0.69444444  0.00000000
0.33333333  0.72222222  0.00000000
0.33333333  0.75000000  0.00000000
0.33333333  0.77777778  0.00000000
0.33333333  0.80555556  0.00000000
0.33333333  0.83333333  0.00000000
0.33333333  0.86111111  0.00000000
0.33333333  0.88888889  0.00000000
0.33333333  0.91666667  0.00000000
0.33333333  0.94444444  0.00000000
0.33333333  0.97222222  0.00000000
0.36111111  0.00000000  0.00000000
0.36111111  0.02777778  0.00000000
0.36111111  0.05555556  0.00000000
0.36111111  0.08333333  0.00000000
0.36111111  0.11111111  0.00000000
0.36111111  0.13888889  0.00000000
0.36111111  0.16666667  0.00000000
0.36111111  0.19444444  0.00000000
0.36111111  0.22222222  0.00000000
0.36111111  0.25000000  0.00000000
0.36111111  0.27777778  0.00000000
0.36111111  0.30555556  0.00000000
0.36111111  0.33333333  0.00000000
0.36111111  0.36111111  0.00000000
0.36111111  0.38888889  0.00000000
0.36111111  0.41666667  0.00000000
0.36111111  0.44444444  0.00000000
0.36111111  0.47222222  0.00000000
0.36111111  0.50000000  0.00000000
0.36111111  0.52777778  0.00000000
0.36111111  0.55555556  0.00000000
0.36111111  0.58333333  0.00000000
0.36111111  0.61111111  0.00000000
0.36111111  0.63888889  0.00000000
0.36111111  0.66666667  0.00000000
0.36111111  0.69444444  0.00000000
0.36111111  0.72222222  0.00000000
0.36111111  0.75000000  0.00000000
0.36111111  0.77777778  0.00000000
0.36111111  0.80555556  0.00000000
0.36111111  0.83333333  0.00000000
0.36111111  0.86111111  0.00000000
0.36111111  0.88888889  0.00000000
0.36111111  0.91666667  0.00000000
0.36111111  0.94444444  0.00000000
0.36111111  0.97222222  0.00000000
0.38888889  0.00000000  0.00000000
0.38888889  0.02777778  0.00000000
0.38888889  0.05555556  0.00000000
0.38888889  0.08333333  0.00000000
0.38888889  0.11111111  0.00000000
0.38888889  0.13888889  0.00000000
0.38888889  0.16666667  0.00000000
0.38888889  0.19444444  0.00000000
0.38888889  0.22222222  0.00000000
0.38888889  0.25000000  0.00000000
0.38888889  0.27777778  0.00000000
0.38888889  0.30555556  0.00000000
0.38888889  0.33333333  0.00000000
0.38888889  0.36111111  0.00000000
0.38888889  0.38888889  0.00000000
0.38888889  0.41666667  0.00000000
0.38888889  0.44444444  0.00000000
0.38888889  0.47222222  0.00000000
0.38888889  0.50000000  0.00000000
0.38888889  0.52777778  0.00000000
0.38888889  0.55555556  0.00000000
0.38888889  0.58333333  0.00000000
0.38888889  0.61111111  0.00000000
0.38888889  0.63888889  0.00000000
0.38888889  0.66666667  0.00000000
0.38888889  0.69444444  0.00000000
0.38888889  0.72222222  0.00000000
0.38888889  0.75000000  0.00000000
0.38888889  0.77777778  0.00000000
0.38888889  0.80555556  0.00000000
0.38888889  0.83333333  0.00000000
0.38888889  0.86111111  0.00000000
0.38888889  0.88888889  0.00000000
0.38888889  0.91666667  0.00000000
0.38888889  0.94444444  0.00000000
0.38888889  0.97222222  0.00000000
0.41666667  0.00000000  0.00000000
0.41666667  0.02777778  0.00000000
0.41666667  0.05555556  0.00000000
0.41666667  0.08333333  0.00000000
0.41666667  0.11111111  0.00000000
0.41666667  0.13888889  0.00000000
0.41666667  0.16666667  0.00000000
0.41666667  0.19444444  0.00000000
0.41666667  0.22222222  0.00000000
0.41666667  0.25000000  0.00000000
0.41666667  0.27777778  0.00000000
0.41666667  0.30555556  0.00000000
0.41666667  0.33333333  0.00000000
0.41666667  0.36111111  0.00000000
0.41666667  0.38888889  0.00000000
0.41666667  0.41666667  0.00000000
0.41666667  0.44444444  0.00000000
0.41666667  0.47222222  0.00000000
0.41666667  0.50000000  0.00000000
0.41666667  0.52777778  0.00000000
0.41666667  0.55555556  0.00000000
0.41666667  0.58333333  0.00000000
0.41666667  0.61111111  0.00000000
0.41666667  0.63888889  0.00000000
0.41666667  0.66666667  0.00000000
0.41666667  0.69444444  0.00000000
0.41666667  0.72222222  0.00000000
0.41666667  0.75000000  0.00000000
0.41666667  0.77777778  0.00000000
0.41666667  0.80555556  0.00000000
0.41666667  0.83333333  0.00000000
0.41666667  0.86111111  0.00000000
0.41666667  0.88888889  0.00000000
0.41666667  0.91666667  0.00000000
0.41666667  0.94444444  0.00000000
0.41666667  0.97222222  0.00000000
0.44444444  0.00000000  0.00000000
0.44444444  0.02777778  0.00000000
0.44444444  0.05555556  0.00000000
0.44444444  0.08333333  0.00000000
0.44444444  0.11111111  0.00000000
0.44444444  0.13888889  0.00000000
0.44444444  0.16666667  0.00000000
0.44444444  0.19444444  0.00000000
0.44444444  0.22222222  0.00000000
0.44444444  0.25000000  0.00000000
0.44444444  0.27777778  0.00000000
0.44444444  0.30555556  0.00000000
0.44444444  0.33333333  0.00000000
0.44444444  0.36111111  0.00000000
0.44444444  0.38888889  0.00000000
0.44444444  0.41666667  0.00000000
0.44444444  0.44444444  0.00000000
0.44444444  0.47222222  0.00000000
0.44444444  0.50000000  0.00000000
0.44444444  0.52777778  0.00000000
0.44444444  0.55555556  0.00000000
0.44444444  0.58333333  0.00000000
0.44444444  0.61111111  0.00000000
0.44444444  0.63888889  0.00000000
0.44444444  0.66666667  0.00000000
0.44444444  0.69444444  0.00000000
0.44444444  0.72222222  0.00000000
0.44444444  0.75000000  0.00000000
0.44444444  0.77777778  0.00000000
0.44444444  0.80555556  0.00000000
0.44444444  0.83333333  0.00000000
0.44444444  0.86111111  0.00000000
0.44444444  0.88888889  0.00000000
0.44444444  0.91666667  0.00000000
0.44444444  0.94444444  0.00000000
0.44444444  0.97222222  0.00000000
0.47222222  0.00000000  0.00000000
0.47222222  0.02777778  0.00000000
0.47222222  0.05555556  0.00000000
0.47222222  0.08333333  0.00000000
0.47222222  0.11111111  0.00000000
0.47222222  0.13888889  0.00000000
0.47222222  0.16666667  0.00000000
0.47222222  0.19444444  0.00000000
0.47222222  0.22222222  0.00000000
0.47222222  0.25000000  0.00000000
0.47222222  0.27777778  0.00000000
0.47222222  0.30555556  0.00000000
0.47222222  0.33333333  0.00000000
0.47222222  0.36111111  0.00000000
0.47222222  0.38888889  0.00000000
0.47222222  0.41666667  0.00000000
0.47222222  0.44444444  0.00000000
0.47222222  0.47222222  0.00000000
0.47222222  0.50000000  0.00000000
0.47222222  0.52777778  0.00000000
0.47222222  0.55555556  0.00000000
0.47222222  0.58333333  0.00000000
0.47222222  0.61111111  0.00000000
0.47222222  0.63888889  0.00000000
0.47222222  0.66666667  0.00000000
0.47222222  0.69444444  0.00000000
0.47222222  0.72222222  0.00000000
0.47222222  0.75000000  0.00000000
0.47222222  0.77777778  0.00000000
0.47222222  0.80555556  0.00000000
0.47222222  0.83333333  0.00000000
0.47222222  0.86111111  0.00000000
0.47222222  0.88888889  0.00000000
0.47222222  0.91666667  0.00000000
0.47222222  0.94444444  0.00000000
0.47222222  0.97222222  0.00000000
0.50000000  0.00000000  0.00000000
0.50000000  0.02777778  0.00000000
0.50000000  0.05555556  0.00000000
0.50000000  0.08333333  0.00000000
0.50000000  0.11111111  0.00000000
0.50000000  0.13888889  0.00000000
0.50000000  0.16666667  0.00000000
0.50000000  0.19444444  0.00000000
0.50000000  0.22222222  0.00000000
0.50000000  0.25000000  0.00000000
0.50000000  0.27777778  0.00000000
0.50000000  0.30555556  0.00000000
0.50000000  0.33333333  0.00000000
0.50000000  0.36111111  0.00000000
0.50000000  0.38888889  0.00000000
0.50000000  0.41666667  0.00000000
0.50000000  0.44444444  0.00000000
0.50000000  0.47222222  0.00000000
0.50000000  0.50000000  0.00000000
0.50000000  0.52777778  0.00000000
0.50000000  0.55555556  0.00000000
0.50000000  0.58333333  0.00000000
0.50000000  0.61111111  0.00000000
0.50000000  0.63888889  0.00000000
0.50000000  0.66666667  0.00000000
0.50000000  0.69444444  0.00000000
0.50000000  0.72222222  0.00000000
0.50000000  0.75000000  0.00000000
0.50000000  0.77777778  0.00000000
0.50000000  0.80555556  0.00000000
0.50000000  0.83333333  0.00000000
0.50000000  0.86111111  0.00000000
0.50000000  0.88888889  0.00000000
0.50000000  0.91666667  0.00000000
0.50000000  0.94444444  0.00000000
0.50000000  0.97222222  0.00000000
0.52777778  0.00000000  0.00000000
0.52777778  0.02777778  0.00000000
0.52777778  0.05555556  0.00000000
0.52777778  0.08333333  0.00000000
0.52777778  0.11111111  0.00000000
0.52777778  0.13888889  0.00000000
0.52777778  0.16666667  0.00000000
0.52777778  0.19444444  0.00000000
0.52777778  0.22222222  0.00000000
0.52777778  0.25000000  0.00000000
0.52777778  0.27777778  0.00000000
0.52777778  0.30555556  0.00000000
0.52777778  0.33333333  0.00000000
0.52777778  0.36111111  0.00000000
0.52777778  0.38888889  0.00000000
0.52777778  0.41666667  0.00000000
0.52777778  0.44444444  0.00000000
0.52777778  0.47222222  0.00000000
0.52777778  0.50000000  0.00000000
0.52777778  0.52777778  0.00000000
0.52777778  0.55555556  0.00000000
0.52777778  0.58333333  0.00000000
0.52777778  0.61111111  0.00000000
0.52777778  0.63888889  0.00000000
0.52777778  0.66666667  0.00000000
0.52777778  0.69444444  0.00000000
0.52777778  0.72222222  0.00000000
0.52777778  0.75000000  0.00000000
0.52777778  0.77777778  0.00000000
0.52777778  0.80555556  0.00000000
0.52777778  0.83333333  0.00000000
0.52777778  0.86111111  0.00000000
0.52777778  0.88888889  0.00000000
0.52777778  0.91666667  0.00000000
0.52777778  0.94444444  0.00000000
0.52777778  0.97222222  0.00000000
0.55555556  0.00000000  0.00000000
0.55555556  0.02777778  0.00000000
0.55555556  0.05555556  0.00000000
0.55555556  0.08333333  0.00000000
0.55555556  0.11111111  0.00000000
0.55555556  0.13888889  0.00000000
0.55555556  0.16666667  0.00000000
0.55555556  0.19444444  0.00000000
0.55555556  0.22222222  0.00000000
0.55555556  0.25000000  0.00000000
0.55555556  0.27777778  0.00000000
0.55555556  0.30555556  0.00000000
0.55555556  0.33333333  0.00000000
0.55555556  0.36111111  0.00000000
0.55555556  0.38888889  0.00000000
0.55555556  0.41666667  0.00000000
0.55555556  0.44444444  0.00000000
0.55555556  0.47222222  0.00000000
0.55555556  0.50000000  0.00000000
0.55555556  0.52777778  0.00000000
0.55555556  0.55555556  0.00000000
0.55555556  0.58333333  0.00000000
0.55555556  0.61111111  0.00000000
0.55555556  0.63888889  0.00000000
0.55555556  0.66666667  0.00000000
0.55555556  0.69444444  0.00000000
0.55555556  0.72222222  0.00000000
0.55555556  0.75000000  0.00000000
0.55555556  0.77777778  0.00000000
0.55555556  0.80555556  0.00000000
0.55555556  0.83333333  0.00000000
0.55555556  0.86111111  0.00000000
0.55555556  0.88888889  0.00000000
0.55555556  0.91666667  0.00000000
0.55555556  0.94444444  0.00000000
0.55555556  0.97222222  0.00000000
0.58333333  0.00000000  0.00000000
0.58333333  0.02777778  0.00000000
0.58333333  0.05555556  0.00000000
0.58333333  0.08333333  0.00000000
0.58333333  0.11111111  0.00000000
0.58333333  0.13888889  0.00000000
0.58333333  0.16666667  0.00000000
0.58333333  0.19444444  0.00000000
0.58333333  0.22222222  0.00000000
0.58333333  0.25000000  0.00000000
0.58333333  0.27777778  0.00000000
0.58333333  0.30555556  0.00000000
0.58333333  0.33333333  0.00000000
0.58333333  0.36111111  0.00000000
0.58333333  0.38888889  0.00000000
0.58333333  0.41666667  0.00000000
0.58333333  0.44444444  0.00000000
0.58333333  0.47222222  0.00000000
0.58333333  0.50000000  0.00000000
0.58333333  0.52777778  0.00000000
0.58333333  0.55555556  0.00000000
0.58333333  0.58333333  0.00000000
0.58333333  0.61111111  0.00000000
0.58333333  0.63888889  0.00000000
0.58333333  0.66666667  0.00000000
0.58333333  0.69444444  0.00000000
0.58333333  0.72222222  0.00000000
0.58333333  0.75000000  0.00000000
0.58333333  0.77777778  0.00000000
0.58333333  0.80555556  0.00000000
0.58333333  0.83333333  0.00000000
0.58333333  0.86111111  0.00000000
0.58333333  0.88888889  0.00000000
0.58333333  0.91666667  0.00000000
0.58333333  0.94444444  0.00000000
0.58333333  0.97222222  0.00000000
0.61111111  0.00000000  0.00000000
0.61111111  0.02777778  0.00000000
0.61111111  0.05555556  0.00000000
0.61111111  0.08333333  0.00000000
0.61111111  0.11111111  0.00000000
0.61111111  0.13888889  0.00000000
0.61111111  0.16666667  0.00000000
0.61111111  0.19444444  0.00000000
0.61111111  0.22222222  0.00000000
0.61111111  0.25000000  0.00000000
0.61111111  0.27777778  0.00000000
0.61111111  0.30555556  0.00000000
0.61111111  0.33333333  0.00000000
0.61111111  0.36111111  0.00000000
0.61111111  0.38888889  0.00000000
0.61111111  0.41666667  0.00000000
0.61111111  0.44444444  0.00000000
0.61111111  0.47222222  0.00000000
0.61111111  0.50000000  0.00000000
0.61111111  0.52777778  0.00000000
0.61111111  0.55555556  0.00000000
0.61111111  0.58333333  0.00000000
0.61111111  0.61111111  0.00000000
0.61111111  0.63888889  0.00000000
0.61111111  0.66666667  0.00000000
0.61111111  0.69444444  0.00000000
0.61111111  0.72222222  0.00000000
0.61111111  0.75000000  0.00000000
0.61111111  0.77777778  0.00000000
0.61111111  0.80555556  0.00000000
0.61111111  0.83333333  0.00000000
0.61111111  0.86111111  0.00000000
0.61111111  0.88888889  0.00000000
0.61111111  0.91666667  0.00000000