 num_bands       = 11
 num_wann        = 11

!!! Disentanglement parameters !!!
!dis_froz_min     = 7.
!dis_froz_max     = 9.
!dis_mix_ratio    = 0.5

!!! Iterations &c. !!!
 iprint                = 1
 num_iter              = 10000
 num_print_cycles      =   100
 conv_window           = 3
!conv_tol              = 1e-10
 dis_num_iter          = 10000
!dis_conv_window       = 3
!dis_conv_tol          = 1e-10
!restart               = default ! wannierise ! plot ! transport

!!! Post-processing options !!!
 write_proj             = .true.
 write_xyz              = .true.
 translate_home_cell    = .true.
 write_hr               = .true.
!fermi_surface_plot     = .true.
!dos                    = .false.
!dos_project            =
!dos_kmesh              = 50 50 1
!dos_energy_min         = -1.8
!dos_energy_max         = +1.5

!!! Band structure !!!
!!! needs `kpoint_path' block
 bands_plot             = .true.
 bands_num_points       = 50
 bands_plot_format      = gnuplot xmgrace
!bands_plot_project     = 1-3
!bands_plot_mode        = s-k | cut [Slater-Koster | truncate Hamiltonian]
begin kpoint_path
  G   0.00000   0.00000   0.00000    K   0.33333   0.33333   0.00000
  K   0.33333   0.33333   0.00000    M   0.50000   0.00000   0.00000
  M   0.50000   0.00000   0.00000    G   0.00000   0.00000   0.00000
end kpoint_path

begin unit_cell_cart
Bohr
    5.172155   -2.986145    0.000000
    0.000000    5.972290    0.000000
    0.000000    0.000000   84.504658
end unit_cell_cart

begin atoms_cart
Bohr
   1    0.00000000    0.00000000    0.00000000
   2    1.72405165    2.98614494   81.50744848
   3    1.72405165    2.98614494    2.99720952
end atoms_cart


!!!! Dummy `projections' block for guiding centres !!!
guiding_centres = T
begin projections
   1:d
   2:p
   3:p
end projections

!!! K-Points !!!
mp_grid : 12 12 1
begin kpoints
  0.000000000000000  0.000000000000000  0.000000000000000
  0.000000000000000  0.083333333333333  0.000000000000000
  0.000000000000000  0.166666666666667  0.000000000000000
  0.000000000000000  0.250000000000000  0.000000000000000
  0.000000000000000  0.333333333333333  0.000000000000000
  0.000000000000000  0.416666666666667  0.000000000000000
  0.000000000000000  0.500000000000000  0.000000000000000
  0.000000000000000  0.583333333333333  0.000000000000000
  0.000000000000000  0.666666666666667  0.000000000000000
  0.000000000000000  0.750000000000000  0.000000000000000
  0.000000000000000  0.833333333333333  0.000000000000000
  0.000000000000000  0.916666666666667  0.000000000000000
  0.083333333333333  0.000000000000000  0.000000000000000
  0.083333333333333  0.083333333333333  0.000000000000000
  0.083333333333333  0.166666666666667  0.000000000000000
  0.083333333333333  0.250000000000000  0.000000000000000
  0.083333333333333  0.333333333333333  0.000000000000000
  0.083333333333333  0.416666666666667  0.000000000000000
  0.083333333333333  0.500000000000000  0.000000000000000
  0.083333333333333  0.583333333333333  0.000000000000000
  0.083333333333333  0.666666666666667  0.000000000000000
  0.083333333333333  0.750000000000000  0.000000000000000
  0.083333333333333  0.833333333333333  0.000000000000000
  0.083333333333333  0.916666666666667  0.000000000000000
  0.166666666666667  0.000000000000000  0.000000000000000
  0.166666666666667  0.083333333333333  0.000000000000000
  0.166666666666667  0.166666666666667  0.000000000000000
  0.166666666666667  0.250000000000000  0.000000000000000
  0.166666666666667  0.333333333333333  0.000000000000000
  0.166666666666667  0.416666666666667  0.000000000000000
  0.166666666666667  0.500000000000000  0.000000000000000
  0.166666666666667  0.583333333333333  0.000000000000000
  0.166666666666667  0.666666666666667  0.000000000000000
  0.166666666666667  0.750000000000000  0.000000000000000
  0.166666666666667  0.833333333333333  0.000000000000000
  0.166666666666667  0.916666666666667  0.000000000000000
  0.250000000000000  0.000000000000000  0.000000000000000
  0.250000000000000  0.083333333333333  0.000000000000000
  0.250000000000000  0.166666666666667  0.000000000000000
  0.250000000000000  0.250000000000000  0.000000000000000
  0.250000000000000  0.333333333333333  0.000000000000000
  0.250000000000000  0.416666666666667  0.000000000000000
  0.250000000000000  0.500000000000000  0.000000000000000
  0.250000000000000  0.583333333333333  0.000000000000000
  0.250000000000000  0.666666666666667  0.000000000000000
  0.250000000000000  0.750000000000000  0.000000000000000
  0.250000000000000  0.833333333333333  0.000000000000000
  0.250000000000000  0.916666666666667  0.000000000000000
  0.333333333333333  0.000000000000000  0.000000000000000
  0.333333333333333  0.083333333333333  0.000000000000000
  0.333333333333333  0.166666666666667  0.000000000000000
  0.333333333333333  0.250000000000000  0.000000000000000
  0.333333333333333  0.333333333333333  0.000000000000000
  0.333333333333333  0.416666666666667  0.000000000000000
  0.333333333333333  0.500000000000000  0.000000000000000
  0.333333333333333  0.583333333333333  0.000000000000000
  0.333333333333333  0.666666666666667  0.000000000000000
  0.333333333333333  0.750000000000000  0.000000000000000
  0.333333333333333  0.833333333333333  0.000000000000000
  0.333333333333333  0.916666666666667  0.000000000000000
  0.416666666666667  0.000000000000000  0.000000000000000
  0.416666666666667  0.083333333333333  0.000000000000000
  0.416666666666667  0.166666666666667  0.000000000000000
  0.416666666666667  0.250000000000000  0.000000000000000
  0.416666666666667  0.333333333333333  0.000000000000000
  0.416666666666667  0.416666666666667  0.000000000000000
  0.416666666666667  0.500000000000000  0.000000000000000
  0.416666666666667  0.583333333333333  0.000000000000000
  0.416666666666667  0.666666666666667  0.000000000000000
  0.416666666666667  0.750000000000000  0.000000000000000
  0.416666666666667  0.833333333333333  0.000000000000000
  0.416666666666667  0.916666666666667  0.000000000000000
  0.500000000000000  0.000000000000000  0.000000000000000
  0.500000000000000  0.083333333333333  0.000000000000000
  0.500000000000000  0.166666666666667  0.000000000000000
  0.500000000000000  0.250000000000000  0.000000000000000
  0.500000000000000  0.333333333333333  0.000000000000000
  0.500000000000000  0.416666666666667  0.000000000000000
  0.500000000000000  0.500000000000000  0.000000000000000
  0.500000000000000  0.583333333333333  0.000000000000000
  0.500000000000000  0.666666666666667  0.000000000000000
  0.500000000000000  0.750000000000000  0.000000000000000
  0.500000000000000  0.833333333333333  0.000000000000000
  0.500000000000000  0.916666666666667  0.000000000000000
  0.583333333333333  0.000000000000000  0.000000000000000
  0.583333333333333  0.083333333333333  0.000000000000000
  0.583333333333333  0.166666666666667  0.000000000000000
  0.583333333333333  0.250000000000000  0.000000000000000
  0.583333333333333  0.333333333333333  0.000000000000000
  0.583333333333333  0.416666666666667  0.000000000000000
  0.583333333333333  0.500000000000000  0.000000000000000
  0.583333333333333  0.583333333333333  0.000000000000000
  0.583333333333333  0.666666666666667  0.000000000000000
  0.583333333333333  0.750000000000000  0.000000000000000
  0.583333333333333  0.833333333333333  0.000000000000000
  0.583333333333333  0.916666666666667  0.000000000000000
  0.666666666666667  0.000000000000000  0.000000000000000
  0.666666666666667  0.083333333333333  0.000000000000000
  0.666666666666667  0.166666666666667  0.000000000000000
  0.666666666666667  0.250000000000000  0.000000000000000
  0.666666666666667  0.333333333333333  0.000000000000000
  0.666666666666667  0.416666666666667  0.000000000000000
  0.666666666666667  0.500000000000000  0.000000000000000
  0.666666666666667  0.583333333333333  0.000000000000000
  0.666666666666667  0.666666666666667  0.000000000000000
  0.666666666666667  0.750000000000000  0.000000000000000
  0.666666666666667  0.833333333333333  0.000000000000000
  0.666666666666667  0.916666666666667  0.000000000000000
  0.750000000000000  0.000000000000000  0.000000000000000
  0.750000000000000  0.083333333333333  0.000000000000000
  0.750000000000000  0.166666666666667  0.000000000000000
  0.750000000000000  0.250000000000000  0.000000000000000
  0.750000000000000  0.333333333333333  0.000000000000000
  0.750000000000000  0.416666666666667  0.000000000000000
  0.750000000000000  0.500000000000000  0.000000000000000
  0.750000000000000  0.583333333333333  0.000000000000000
  0.750000000000000  0.666666666666667  0.000000000000000
  0.750000000000000  0.750000000000000  0.000000000000000
  0.750000000000000  0.833333333333333  0.000000000000000
  0.750000000000000  0.916666666666667  0.000000000000000
  0.833333333333333  0.000000000000000  0.000000000000000
  0.833333333333333  0.083333333333333  0.000000000000000
  0.833333333333333  0.166666666666667  0.000000000000000
  0.833333333333333  0.250000000000000  0.000000000000000
  0.833333333333333  0.333333333333333  0.000000000000000
  0.833333333333333  0.416666666666667  0.000000000000000
  0.833333333333333  0.500000000000000  0.000000000000000
  0.833333333333333  0.583333333333333  0.000000000000000
  0.833333333333333  0.666666666666667  0.000000000000000
  0.833333333333333  0.750000000000000  0.000000000000000
  0.833333333333333  0.833333333333333  0.000000000000000
  0.833333333333333  0.916666666666667  0.000000000000000
  0.916666666666667  0.000000000000000  0.000000000000000
  0.916666666666667  0.083333333333333  0.000000000000000
  0.916666666666667  0.166666666666667  0.000000000000000
  0.916666666666667  0.250000000000000  0.000000000000000
  0.916666666666667  0.333333333333333  0.000000000000000
  0.916666666666667  0.416666666666667  0.000000000000000
  0.916666666666667  0.500000000000000  0.000000000000000
  0.916666666666667  0.583333333333333  0.000000000000000
  0.916666666666667  0.666666666666667  0.000000000000000
  0.916666666666667  0.750000000000000  0.000000000000000
  0.916666666666667  0.833333333333333  0.000000000000000
  0.916666666666667  0.916666666666667  0.000000000000000
end kpoints
